DIR: 0.2620146314439963, EFF: 0.4392977276858791, INT: 0.010344181452095598, OBJ: 0.288343459418029
original problem has 232 variables (231 bin, 1 int, 0 impl, 0 cont) and 138 constraints
unknown variable <t_X00239> in line 2 of solution file </mnt/lscratch/users/dferrario/Adaptive-Cutsel-MILP/TransformedSolutions/23588__trans__seed__1.sol>
  (further unknown variables are ignored)
1/1 feasible solution given by solution candidate storage, new primal bound 8.090000e+03

presolving:
   (0.0s) running MILP presolver
   (0.0s) MILP presolver found nothing
   (0.0s) probing: 51/231 (22.1%) - 0 fixings, 0 aggregations, 0 implications, 0 bound changes
   (0.0s) probing aborted: 50/50 successive totally useless probings
presolving (1 rounds: 1 fast, 1 medium, 1 exhaustive):
 0 deleted vars, 0 deleted constraints, 1 added constraints, 1 tightened bounds, 0 added holes, 343 changed sides, 341 changed coefficients
 0 implications, 0 cliques
presolved problem has 232 variables (231 bin, 1 int, 0 impl, 0 cont) and 139 constraints
     53 constraints of type <knapsack>
      8 constraints of type <linear>
     78 constraints of type <logicor>
transformed objective value is always integral (scale: 1)
Presolving Time: 0.04

 time | node  | left  |LP iter|LP it/n|mem/heur|mdpt |vars |cons |rows |cuts |sepa|confs|strbr|  dualbound   | primalbound  |  gap   | compl. 
  0.1s|     1 |     0 |   337 |     - |  4073k |   0 | 232 | 139 | 139 |   0 |  0 |   0 |   0 | 7.650000e+03 | 8.090000e+03 |   5.75%| unknown
Computing relative interior point (time limit: 1e+20, iter limit: 3370) ...
  0.3s|     1 |     0 |   409 |     - |  8112k |   0 | 232 | 139 | 149 |  10 |  1 |   0 |   0 | 7.665229e+03 | 8.090000e+03 |   5.54%| unknown
  0.5s|     1 |     0 |   534 |     - |    12M |   0 | 233 | 139 | 159 |  20 |  2 |   0 |   0 | 7.665229e+03 | 8.090000e+03 |   5.54%| unknown
  0.5s|     1 |     0 |   534 |     - |    12M |   0 | 233 | 139 | 159 |  20 |  2 |   0 |   0 | 7.686364e+03 | 8.090000e+03 |   5.25%| unknown
  0.6s|     1 |     0 |   683 |     - |    14M |   0 | 233 | 139 | 169 |  30 |  3 |   0 |   0 | 7.698444e+03 | 8.090000e+03 |   5.09%| unknown
  0.8s|     1 |     0 |   776 |     - |    19M |   0 | 233 | 139 | 179 |  40 |  4 |   0 |   0 | 7.705089e+03 | 8.090000e+03 |   5.00%| unknown
  1.0s|     1 |     0 |   887 |     - |    22M |   0 | 233 | 139 | 189 |  50 |  5 |   0 |   0 | 7.715815e+03 | 8.090000e+03 |   4.85%| unknown
  1.2s|     1 |     0 |  1048 |     - |    28M |   0 | 233 | 139 | 199 |  60 |  6 |   0 |   0 | 7.728886e+03 | 8.090000e+03 |   4.67%| unknown
  1.4s|     1 |     0 |  1176 |     - |    33M |   0 | 233 | 139 | 203 |  70 |  7 |   0 |   0 | 7.736357e+03 | 8.090000e+03 |   4.57%| unknown
  1.7s|     1 |     0 |  1284 |     - |    39M |   0 | 233 | 139 | 213 |  80 |  8 |   0 |   0 | 7.738336e+03 | 8.090000e+03 |   4.54%| unknown
  1.9s|     1 |     0 |  1352 |     - |    39M |   0 | 233 | 139 | 223 |  90 |  9 |   0 |   0 | 7.739720e+03 | 8.090000e+03 |   4.53%| unknown
  2.2s|     1 |     0 |  1430 |     - |    44M |   0 | 233 | 139 | 233 | 100 | 10 |   0 |   0 | 7.741501e+03 | 8.090000e+03 |   4.50%| unknown
  2.5s|     1 |     0 |  1528 |     - |    47M |   0 | 233 | 139 | 215 | 110 | 11 |   0 |   0 | 7.743557e+03 | 8.090000e+03 |   4.47%| unknown
  2.7s|     1 |     0 |  1591 |     - |    51M |   0 | 233 | 139 | 225 | 120 | 12 |   0 |   0 | 7.745423e+03 | 8.090000e+03 |   4.45%| unknown
  3.0s|     1 |     0 |  1679 |     - |    52M |   0 | 233 | 139 | 235 | 130 | 13 |   0 |   0 | 7.746352e+03 | 8.090000e+03 |   4.44%| unknown
 time | node  | left  |LP iter|LP it/n|mem/heur|mdpt |vars |cons |rows |cuts |sepa|confs|strbr|  dualbound   | primalbound  |  gap   | compl. 
  3.3s|     1 |     0 |  1744 |     - |    57M |   0 | 233 | 139 | 245 | 140 | 14 |   0 |   0 | 7.747258e+03 | 8.090000e+03 |   4.42%| unknown
  3.7s|     1 |     0 |  1827 |     - |    59M |   0 | 233 | 139 | 233 | 150 | 15 |   0 |   0 | 7.748188e+03 | 8.090000e+03 |   4.41%| unknown
  4.0s|     1 |     0 |  1860 |     - |    63M |   0 | 233 | 139 | 243 | 160 | 16 |   0 |   0 | 7.748348e+03 | 8.090000e+03 |   4.41%| unknown
  4.3s|     1 |     0 |  1914 |     - |    65M |   0 | 233 | 139 | 253 | 170 | 17 |   0 |   0 | 7.748507e+03 | 8.090000e+03 |   4.41%| unknown
  4.6s|     1 |     0 |  1932 |     - |    66M |   0 | 233 | 139 | 263 | 180 | 18 |   0 |   0 | 7.749000e+03 | 8.090000e+03 |   4.40%| unknown
  4.9s|     1 |     0 |  2035 |     - |    66M |   0 | 233 | 139 | 273 | 190 | 19 |   0 |   0 | 7.749000e+03 | 8.090000e+03 |   4.40%| unknown
  5.3s|     1 |     0 |  2124 |     - |    72M |   0 | 233 | 139 | 283 | 200 | 20 |   0 |   0 | 7.749000e+03 | 8.090000e+03 |   4.40%| unknown
  5.8s|     1 |     0 |  2315 |     - |    75M |   0 | 233 | 139 | 251 | 210 | 21 |   0 |   0 | 7.749365e+03 | 8.090000e+03 |   4.40%| unknown
  6.1s|     1 |     0 |  2356 |     - |    75M |   0 | 233 | 139 | 261 | 220 | 22 |   0 |   0 | 7.749802e+03 | 8.090000e+03 |   4.39%| unknown
  6.4s|     1 |     0 |  2395 |     - |    76M |   0 | 233 | 139 | 271 | 230 | 23 |   0 |   0 | 7.750612e+03 | 8.090000e+03 |   4.38%| unknown
  6.8s|     1 |     0 |  2638 |     - |    86M |   0 | 233 | 139 | 281 | 240 | 24 |   0 |   0 | 7.751327e+03 | 8.090000e+03 |   4.37%| unknown
  7.2s|     1 |     0 |  2695 |     - |    88M |   0 | 233 | 139 | 291 | 250 | 25 |   0 |   0 | 7.751644e+03 | 8.090000e+03 |   4.36%| unknown
  7.6s|     1 |     0 |  2755 |     - |    88M |   0 | 233 | 139 | 259 | 260 | 26 |   0 |   0 | 7.752056e+03 | 8.090000e+03 |   4.36%| unknown
  7.9s|     1 |     0 |  2792 |     - |    88M |   0 | 233 | 139 | 269 | 270 | 27 |   0 |   0 | 7.752369e+03 | 8.090000e+03 |   4.36%| unknown
  8.3s|     1 |     0 |  2842 |     - |    88M |   0 | 233 | 139 | 279 | 280 | 28 |   0 |   0 | 7.752603e+03 | 8.090000e+03 |   4.35%| unknown
 time | node  | left  |LP iter|LP it/n|mem/heur|mdpt |vars |cons |rows |cuts |sepa|confs|strbr|  dualbound   | primalbound  |  gap   | compl. 
  8.7s|     1 |     0 |  2891 |     - |   101M |   0 | 233 | 139 | 289 | 290 | 29 |   0 |   0 | 7.752940e+03 | 8.090000e+03 |   4.35%| unknown
  9.1s|     1 |     0 |  2943 |     - |   102M |   0 | 233 | 139 | 299 | 300 | 30 |   0 |   0 | 7.753229e+03 | 8.090000e+03 |   4.34%| unknown
  9.5s|     1 |     0 |  2982 |     - |   104M |   0 | 233 | 139 | 309 | 310 | 31 |   0 |   0 | 7.754000e+03 | 8.090000e+03 |   4.33%| unknown
  9.9s|     1 |     0 |  3040 |     - |   104M |   0 | 233 | 139 | 259 | 320 | 32 |   0 |   0 | 7.754000e+03 | 8.090000e+03 |   4.33%| unknown
 10.3s|     1 |     0 |  3145 |     - |   105M |   0 | 233 | 139 | 269 | 330 | 33 |   0 |   0 | 7.754000e+03 | 8.090000e+03 |   4.33%| unknown
 10.7s|     1 |     0 |  3263 |     - |   119M |   0 | 233 | 139 | 279 | 340 | 34 |   0 |   0 | 7.754200e+03 | 8.090000e+03 |   4.33%| unknown
 11.0s|     1 |     0 |  3368 |     - |   121M |   0 | 233 | 139 | 289 | 350 | 35 |   0 |   0 | 7.754367e+03 | 8.090000e+03 |   4.33%| unknown
 11.4s|     1 |     0 |  3479 |     - |   121M |   0 | 233 | 139 | 299 | 360 | 36 |   0 |   0 | 7.755000e+03 | 8.090000e+03 |   4.32%| unknown
 11.8s|     1 |     0 |  3599 |     - |   122M |   0 | 233 | 139 | 309 | 370 | 37 |   0 |   0 | 7.755000e+03 | 8.090000e+03 |   4.32%| unknown
 12.2s|     1 |     0 |  3777 |     - |   122M |   0 | 233 | 139 | 272 | 380 | 38 |   0 |   0 | 7.755124e+03 | 8.090000e+03 |   4.32%| unknown
 12.6s|     1 |     0 |  3802 |     - |   124M |   0 | 233 | 139 | 279 | 387 | 39 |   0 |   0 | 7.756000e+03 | 8.090000e+03 |   4.31%| unknown
 13.0s|     1 |     0 |  3903 |     - |   143M |   0 | 233 | 139 | 289 | 397 | 40 |   0 |   0 | 7.756000e+03 | 8.090000e+03 |   4.31%| unknown
 13.4s|     1 |     0 |  4108 |     - |   144M |   0 | 233 | 139 | 299 | 407 | 41 |   0 |   0 | 7.756000e+03 | 8.090000e+03 |   4.31%| unknown
 13.7s|     1 |     0 |  4323 |     - |   144M |   0 | 233 | 139 | 309 | 417 | 42 |   0 |   0 | 7.756058e+03 | 8.090000e+03 |   4.31%| unknown
 14.1s|     1 |     0 |  4420 |     - |   146M |   0 | 233 | 139 | 319 | 427 | 43 |   0 |   0 | 7.757113e+03 | 8.090000e+03 |   4.29%| unknown
 time | node  | left  |LP iter|LP it/n|mem/heur|mdpt |vars |cons |rows |cuts |sepa|confs|strbr|  dualbound   | primalbound  |  gap   | compl. 
 14.5s|     1 |     0 |  4487 |     - |   146M |   0 | 233 | 139 | 280 | 437 | 44 |   0 |   0 | 7.757616e+03 | 8.090000e+03 |   4.28%| unknown
 14.8s|     1 |     0 |  4543 |     - |   147M |   0 | 233 | 139 | 290 | 447 | 45 |   0 |   0 | 7.757973e+03 | 8.090000e+03 |   4.28%| unknown
 15.2s|     1 |     0 |  4630 |     - |   169M |   0 | 233 | 139 | 300 | 457 | 46 |   0 |   0 | 7.758314e+03 | 8.090000e+03 |   4.28%| unknown
 15.6s|     1 |     0 |  4702 |     - |   172M |   0 | 233 | 139 | 310 | 467 | 47 |   0 |   0 | 7.759000e+03 | 8.090000e+03 |   4.27%| unknown
 15.9s|     1 |     0 |  4803 |     - |   172M |   0 | 233 | 139 | 320 | 477 | 48 |   0 |   0 | 7.759000e+03 | 8.090000e+03 |   4.27%| unknown
 16.2s|     1 |     0 |  4954 |     - |   172M |   0 | 233 | 139 | 330 | 487 | 49 |   0 |   0 | 7.759000e+03 | 8.090000e+03 |   4.27%| unknown
 16.3s|     1 |     0 |  5082 |     - |   172M |   0 | 233 | 139 | 265 | 488 | 50 |   0 |   0 | 7.759000e+03 | 8.090000e+03 |   4.27%| unknown
 16.3s|     1 |     2 |  5082 |     - |   172M |   0 | 233 | 139 | 265 | 488 | 50 |   0 |   0 | 7.759000e+03 | 8.090000e+03 |   4.27%| unknown

SCIP Status        : solving was interrupted [node limit reached]
Solving Time (sec) : 16.28
Solving Nodes      : 1
Primal Bound       : +8.09000000000000e+03 (1 solutions)
Dual Bound         : +7.75900000000000e+03
Gap                : 4.27 %
